
o------------------------------ O F E M C ------------------------------o
|                                                                       |
|                        Finite Element Analysis                        |
|                          Displacement Method                          |
|                           Linear  Behaviour                           |
|                                                                       |
| Release   0.2 (demonstration version)   Professional use not allowed  |
| March 2024                              Language: C                   |
|                                                                       |
|      Departamento de Engenharia Civil - Universidade de Aveiro        |
|                                                                       |
o------------------------------ O F E M C ------------------------------o



*** Main title of the problem

/Users/paulocachim/MyFiles/github/xdfem/tests/untitled.msh

*** Calculated parameters:

* Stifness matrix

N. of the element type =     7    Average elapsed time (sec.) =      0.000
N. of the element type =     9    Average elapsed time (sec.) =      0.000

* Solution algorithm parameters

N. of variables in the mesh                      (ntotv) =        312
N. of variables in the mesh (compacted)          (ntotc) =        241
N. of columns of the half band                   (nhban) =        288
N. of columns of the half band (compacted)       (nhbac) =        211
N. of non-zero terms in stiffness matrix         (nnzte) =       1753

Solution algorithm (direc/iterative)             (soalg) =          d
Elapsed time (seconds)                           (rela1) =      0.000
CPU time (seconds)                               (rcpu1) =      0.002

  ======================

Load case n.        1

DEAD


*** Nodal displacements:
    (There are shell elements in the mesh.)
    (The nodes belonging to this elements have:)
    (delta-x,delta-y and delta-z in global coordinate system)
    (kink node => delta-tx, delta-ty and delta-tz in global coordinate system)
    (coplanar node => delta-tx and delta-ty in local coordinate system)

Point number (ipoin)
X displacement (delta-x)
Y displacement (delta-y)
Z displacement (delta-z)
Theta-X rotation (delta-tx)
Theta-Y rotation (delta-ty)
Theta-Z rotation (delta-tz)

 ipoin    nodty             delta-x            delta-y            delta-z
                            delta-tx           delta-ty           delta-tz
     1  KINK FIXD          0.00000000         0.00000000         0.00000000
                           0.00000000         0.00000000         0.00000000
     2  KINK FIXD          0.00000000         0.00000000         0.00000000
                           0.00000000         0.00000000         0.00000000
     3  KINK FIXD          0.00000000         0.00000000         0.00000000
                           0.00000000         0.00000000         0.00000000
     4  KINK FREE          0.00000000         0.00000000        -0.00000000
                           0.00000002         0.00000003         0.00000000
     5  KINK FREE          0.00000000         0.00000000        -0.00000001
                          -0.00000001         0.00000004         0.00000000
     6  KINK FREE          0.00000000         0.00000000        -0.00000001
                          -0.00000007         0.00000003         0.00000000
     7  KINK FREE          0.00000000         0.00000000        -0.00000001
                          -0.00000012         0.00000000         0.00000000
     8  KINK FREE          0.00000000         0.00000000        -0.00000001
                          -0.00000016        -0.00000002         0.00000000
     9  KINK FREE          0.00000000         0.00000000        -0.00000001
                          -0.00000016        -0.00000004         0.00000000
    10  KINK FREE          0.00000000         0.00000000        -0.00000000
                          -0.00000012        -0.00000003         0.00000000
    11  KINK FREE          0.00000000         0.00000000        -0.00000000
                          -0.00000003        -0.00000012         0.00000000
    12  KINK FREE          0.00000000         0.00000000        -0.00000001
                          -0.00000004        -0.00000016         0.00000000
    13  KINK FREE          0.00000000         0.00000000        -0.00000001
                          -0.00000002        -0.00000016         0.00000000
    14  KINK FREE          0.00000000         0.00000000        -0.00000001
                           0.00000000        -0.00000012         0.00000000
    15  KINK FREE          0.00000000         0.00000000        -0.00000001
                           0.00000003        -0.00000007         0.00000000
    16  KINK FREE          0.00000000         0.00000000        -0.00000001
                           0.00000004        -0.00000001         0.00000000
    17  KINK FREE          0.00000000         0.00000000        -0.00000000
                           0.00000003         0.00000002         0.00000000
    18  KINK FIXD          0.00000000         0.00000000         0.00000000
                           0.00000003         0.00000003         0.00000000
    19  KINK FIXD          0.00000000         0.00000000         0.00000000
                           0.00000006         0.00000006         0.00000000
    20  KINK FIXD          0.00000000         0.00000000         0.00000000
                           0.00000010         0.00000010         0.00000000
    21  KINK FIXD          0.00000000         0.00000000         0.00000000
                           0.00000014         0.00000014         0.00000000
    22  KINK FIXD          0.00000000         0.00000000         0.00000000
                           0.00000015         0.00000015         0.00000000
    23  KINK FIXD          0.00000000         0.00000000         0.00000000
                           0.00000014         0.00000014         0.00000000
    24  KINK FIXD          0.00000000         0.00000000         0.00000000
                           0.00000010         0.00000010         0.00000000
    25  KINK FIXD          0.00000000         0.00000000         0.00000000
                           0.00000006         0.00000006         0.00000000
    26  KINK FIXD          0.00000000         0.00000000         0.00000000
                           0.00000003         0.00000003         0.00000000
    27  COPL FREE          0.00000000         0.00000000        -0.00000004
                          -0.00000002        -0.00000014
    28  COPL FREE          0.00000000         0.00000000        -0.00000004
                           0.00000010         0.00000013
    29  COPL FREE          0.00000000         0.00000000        -0.00000004
                          -0.00000014        -0.00000002
    30  COPL FREE          0.00000000         0.00000000        -0.00000004
                           0.00000012         0.00000006
    31  COPL FREE          0.00000000         0.00000000        -0.00000003
                          -0.00000006         0.00000006
    32  COPL FREE          0.00000000         0.00000000        -0.00000004
                           0.00000007        -0.00000005
    33  COPL FREE          0.00000000         0.00000000        -0.00000004
                           0.00000013         0.00000010
    34  COPL FREE          0.00000000         0.00000000        -0.00000006
                           0.00000003         0.00000003
    35  COPL FREE          0.00000000         0.00000000        -0.00000006
                          -0.00000001         0.00000007
    36  COPL FREE          0.00000000         0.00000000        -0.00000005
                           0.00000007        -0.00000001
    37  COPL FREE          0.00000000         0.00000000        -0.00000004
                           0.00000006         0.00000012
    38  COPL FREE          0.00000000         0.00000000        -0.00000003
                          -0.00000006        -0.00000012
    39  COPL FREE          0.00000000         0.00000000        -0.00000006
                          -0.00000005        -0.00000006
    40  COPL FREE          0.00000000         0.00000000        -0.00000002
                           0.00000007        -0.00000001
    41  COPL FREE          0.00000000         0.00000000        -0.00000002
                          -0.00000001         0.00000007
    42  COPL FREE          0.00000000         0.00000000        -0.00000004
                          -0.00000011         0.00000003
    43  COPL FREE          0.00000000         0.00000000        -0.00000004
                           0.00000002        -0.00000011
    44  COPL FREE          0.00000000         0.00000000        -0.00000003
                          -0.00000012        -0.00000007
    45  COPL FREE          0.00000000         0.00000000        -0.00000001
                           0.00000005         0.00000002
    46  COPL FREE          0.00000000         0.00000000        -0.00000001
                           0.00000002         0.00000005
    47  COPL FREE          0.00000000         0.00000000        -0.00000006
                          -0.00000006         0.00000001
    48  COPL FREE          0.00000000         0.00000000        -0.00000003
                           0.00000004         0.00000010
    49  COPL FREE          0.00000000         0.00000000        -0.00000002
                          -0.00000008        -0.00000008
    50  COPL FREE          0.00000000         0.00000000        -0.00000002
                           0.00000010         0.00000004
    51  COPL FREE          0.00000000         0.00000000        -0.00000006
                           0.00000001        -0.00000007
    52  COPL FREE          0.00000000         0.00000000        -0.00000004
                          -0.00000002         0.00000008

*** Element forces/stresses/resultant stresses
            principal stresses/resultant stresses

Frame element (3D):

Generalized forces at the bar extremities:
    (local coordinate system)
    (same sign convention for both extremities)

Element number (ielem)
Element type (ntype)
Node number (inode)
X axial force (Nx)
Y shear force (Vy)
Z shear force (Vz)
X torsion moment (Tx)
Y bending moment (My)
Z bending moment (Mz)

 ielem  ntype  inode      coord ...
          Nx                 Vy                 Vz
          Tx                 My                 Mz

 .............................................................

Flat shell element:

Resultant stresses in the Gauss points:
    (local coordinate system)

Element number (ielem)
Element type (ntype)
Gauss point number (igtst)
Gauss point global coordinates (gpcot)
X normal force (Nx)
Y normal force (Ny)
XY shear force (Nxy)
ZX bending moment (Mzx)
ZY bending moment (Mzy)
XY twisting moment (Mxy)
YZ shear force (Qyz)
ZX shear force (Qzx)
Principal membrane force (N1)
Principal membrane force (N2)
Angle of principal membrane force N1 with X axis - degrees (Angng)
Principal bending moment (M1)
Principal bending moment (M2)
Angle of principal moment M1 with X axis - degrees (Angmg)

 ielem  ntype  igtst      gpcot ...
          Nx                 Ny                 Nxy
          Mzx                Mzy                Mxy
          Qyz                Qzx
          N1                 N2                Angng
          M1                 M2                Angmg

 .............................................................

     1   FRAME 3D       1       0.00000000       0.00000000       0.00000000
         0.00000000         0.00000000         0.86837733
        -0.00001019        -0.19141506         0.00000000
     1   FRAME 3D       2       0.12500000       0.00000000       0.00000000
         0.00000000         0.00000000        -0.86837733
         0.00001019         0.08286789         0.00000000

     2   FRAME 3D       1       0.12500000       0.00000000       0.00000000
         0.00000000         0.00000000         0.74173002
         0.00001853        -0.08225498         0.00000000
     2   FRAME 3D       2       0.25000000       0.00000000       0.00000000
         0.00000000         0.00000000        -0.74173002
        -0.00001853        -0.01046127         0.00000000

     3   FRAME 3D       1       0.25000000       0.00000000       0.00000000
         0.00000000         0.00000000         0.52644204
         0.00003338         0.01637756         0.00000000
     3   FRAME 3D       2       0.37500000       0.00000000       0.00000000
         0.00000000         0.00000000        -0.52644204
        -0.00003338        -0.08218282         0.00000000

     4   FRAME 3D       1       0.37500000       0.00000000       0.00000000
         0.00000000         0.00000000         0.21954259
         0.00003329         0.09131820         0.00000000
     4   FRAME 3D       2       0.50000000       0.00000000       0.00000000
         0.00000000         0.00000000        -0.21954259
        -0.00003329        -0.11876102         0.00000000

     5   FRAME 3D       1       0.50000000       0.00000000       0.00000000
         0.00000000         0.00000000        -0.14842193
         0.00002357         0.12810673         0.00000000
     5   FRAME 3D       2       0.62500000       0.00000000       0.00000000
         0.00000000         0.00000000         0.14842193
        -0.00002357        -0.10955399         0.00000000

     6   FRAME 3D       1       0.62500000       0.00000000       0.00000000
         0.00000000         0.00000000        -0.56027109
         0.00000130         0.11576076         0.00000000
     6   FRAME 3D       2       0.75000000       0.00000000       0.00000000
         0.00000000         0.00000000         0.56027109
        -0.00000130        -0.04572687         0.00000000

     7   FRAME 3D       1       0.75000000       0.00000000       0.00000000
         0.00000000         0.00000000        -0.95964462
        -0.00002648         0.04474223         0.00000000
     7   FRAME 3D       2       0.87500000       0.00000000       0.00000000
         0.00000000         0.00000000         0.95964462
         0.00002648         0.07521335         0.00000000

     8   FRAME 3D       1       1.00000000       0.00000000       0.00000000
         0.00000000         0.00000000         1.27037050
        -0.00007338        -0.24501824         0.00000000
     8   FRAME 3D       2       0.87500000       0.00000000       0.00000000
         0.00000000         0.00000000        -1.27037050
         0.00007338         0.08622193         0.00000000

     9   FRAME 3D       1       1.00000000       0.00000000       0.00000000
         0.00000000         0.00000000         1.27325685
         0.00007311        -0.24540678         0.00000000
     9   FRAME 3D       2       1.00000000       0.12500000       0.00000000
         0.00000000         0.00000000        -1.27325685
        -0.00007311         0.08624967         0.00000000

    10   FRAME 3D       1       1.00000000       0.12500000       0.00000000
         0.00000000         0.00000000         0.95911881
         0.00002679        -0.07531147         0.00000000
    10   FRAME 3D       2       1.00000000       0.25000000       0.00000000
         0.00000000         0.00000000        -0.95911881
        -0.00002679        -0.04457838         0.00000000

    11   FRAME 3D       1       1.00000000       0.25000000       0.00000000
         0.00000000         0.00000000         0.56074208
        -0.00000155         0.04566797         0.00000000
    11   FRAME 3D       2       1.00000000       0.37500000       0.00000000
         0.00000000         0.00000000        -0.56074208
         0.00000155        -0.11576073         0.00000000

    12   FRAME 3D       1       1.00000000       0.37500000       0.00000000
         0.00000000         0.00000000         0.15707883
        -0.00002383         0.10953918         0.00000000
    12   FRAME 3D       2       1.00000000       0.50000000       0.00000000
         0.00000000         0.00000000        -0.15707883
         0.00002383        -0.12917403         0.00000000

    13   FRAME 3D       1       1.00000000       0.50000000       0.00000000
         0.00000000         0.00000000        -0.22697216
        -0.00003145         0.11919608         0.00000000
    13   FRAME 3D       2       1.00000000       0.62500000       0.00000000
         0.00000000         0.00000000         0.22697216
         0.00003145        -0.09082456         0.00000000

    14   FRAME 3D       1       1.00000000       0.62500000       0.00000000
         0.00000000         0.00000000        -0.53160163
        -0.00003503         0.08270030         0.00000000
    14   FRAME 3D       2       1.00000000       0.75000000       0.00000000
         0.00000000         0.00000000         0.53160163
         0.00003503        -0.01625010         0.00000000

    15   FRAME 3D       1       1.00000000       0.75000000       0.00000000
         0.00000000         0.00000000        -0.74326692
        -0.00001817         0.01050183         0.00000000
    15   FRAME 3D       2       1.00000000       0.87500000       0.00000000
         0.00000000         0.00000000         0.74326692
         0.00001817         0.08240654         0.00000000

    16   FRAME 3D       1       1.00000000       1.00000000       0.00000000
         0.00000000         0.00000000         0.86944101
         0.00001013        -0.19174942         0.00000000
    16   FRAME 3D       2       1.00000000       0.87500000       0.00000000
         0.00000000         0.00000000        -0.86944101
        -0.00001013         0.08306929         0.00000000

    17   FRAME 3D       1       1.00000000       1.00000000       0.00000000
         0.00000000         0.00000000        -0.02585981
         0.00002590         0.00121904         0.00000000
    17   FRAME 3D       2       0.90000000       0.90000000       0.00000000
         0.00000000         0.00000000         0.02585981
        -0.00002590         0.00243809         0.00000000

    18   FRAME 3D       1       0.90000000       0.90000000       0.00000000
         0.00000000         0.00000000        -0.06446156
         0.00002274         0.00425779         0.00000000
    18   FRAME 3D       2       0.80000000       0.80000000       0.00000000
         0.00000000         0.00000000         0.06446156
        -0.00002274         0.00485845         0.00000000

    19   FRAME 3D       1       0.80000000       0.80000000       0.00000000
         0.00000000         0.00000000        -0.07761329
         0.00003077         0.00547843         0.00000000
    19   FRAME 3D       2       0.70000000       0.70000000       0.00000000
         0.00000000         0.00000000         0.07761329
        -0.00003077         0.00549775         0.00000000

    20   FRAME 3D       1       0.70000000       0.70000000       0.00000000
         0.00000000         0.00000000        -0.06754313
         0.00002824         0.00502304         0.00000000
    20   FRAME 3D       2       0.60000000       0.60000000       0.00000000
         0.00000000         0.00000000         0.06754313
        -0.00002824         0.00452901         0.00000000

    21   FRAME 3D       1       0.60000000       0.60000000       0.00000000
         0.00000000         0.00000000        -0.02824259
         0.00001015         0.00267636         0.00000000
    21   FRAME 3D       2       0.50000000       0.50000000       0.00000000
         0.00000000         0.00000000         0.02824259
        -0.00001015         0.00131775         0.00000000

    22   FRAME 3D       1       0.50000000       0.50000000       0.00000000
         0.00000000         0.00000000         0.02872951
        -0.00001045        -0.00136795         0.00000000
    22   FRAME 3D       2       0.40000000       0.40000000       0.00000000
         0.00000000         0.00000000        -0.02872951
         0.00001045        -0.00269502         0.00000000

    23   FRAME 3D       1       0.40000000       0.40000000       0.00000000
         0.00000000         0.00000000         0.06775213
        -0.00002777        -0.00453457         0.00000000
    23   FRAME 3D       2       0.30000000       0.30000000       0.00000000
         0.00000000         0.00000000        -0.06775213
         0.00002777        -0.00504703         0.00000000

    24   FRAME 3D       1       0.30000000       0.30000000       0.00000000
         0.00000000         0.00000000         0.07830289
        -0.00003000        -0.00554440         0.00000000
    24   FRAME 3D       2       0.20000000       0.20000000       0.00000000
         0.00000000         0.00000000        -0.07830289
         0.00003000        -0.00552930         0.00000000

    25   FRAME 3D       1       0.20000000       0.20000000       0.00000000
         0.00000000         0.00000000         0.06426469
        -0.00002398        -0.00486753         0.00000000
    25   FRAME 3D       2       0.10000000       0.10000000       0.00000000
         0.00000000         0.00000000        -0.06426469
         0.00002398        -0.00422087         0.00000000

    26   FRAME 3D       1       0.00000000       0.00000000       0.00000000
         0.00000000         0.00000000        -0.02527341
        -0.00002560         0.00119140         0.00000000
    26   FRAME 3D       2       0.10000000       0.10000000       0.00000000
         0.00000000         0.00000000         0.02527341
         0.00002560         0.00238280         0.00000000

    27   FLAT SHELL     1       0.79179748       0.52278105       0.00000000
         0.00000000         0.00000000         0.00000000
        -0.25769011        -0.15308708         0.07326652
         1.26343025         0.00506517
         0.00000000         0.00000000         0.00000000
        -0.29540765        -0.11536954       -27.23937304

    28   FLAT SHELL     1       0.84269681       0.47544768       0.00000000
         0.00000000         0.00000000         0.00000000
        -0.25266551        -0.14916356         0.07089482
         0.08281514         0.92641146
         0.00000000         0.00000000         0.00000000
        -0.28868833        -0.11314074       -26.93586778

    29   FLAT SHELL     1       0.76770923       0.14999283       0.00000000
         0.00000000         0.00000000         0.00000000
        -0.15459967        -0.18954481        -0.02738717
        -1.14943570         0.41960390
         0.00000000         0.00000000         0.00000000
        -0.13958613        -0.20455836       -28.73139019

    30   FLAT SHELL     1       0.71662756       0.18479048       0.00000000
         0.00000000         0.00000000         0.00000000
        -0.23837978        -0.26217580         0.01608599
        -1.16455766         0.35418028
         0.00000000         0.00000000         0.00000000
        -0.23026975        -0.27028584        26.75575336

    31   FLAT SHELL     1       0.07500000       0.03333333       0.00000000
         0.00000000         0.00000000         0.00000000
         0.04830064        -0.03740856        -0.00273360
        -0.00661702         0.07180481
         0.00000000         0.00000000         0.00000000
         0.04838774        -0.03749566        -1.82491148

    32   FLAT SHELL     1       0.96666667       0.92500000       0.00000000
         0.00000000         0.00000000         0.00000000
        -0.03872001         0.04802347        -0.00230128
        -0.07370053         0.00761198
         0.00000000         0.00000000         0.00000000
        -0.03878102         0.04808448         1.51861648

    33   FLAT SHELL     1       0.64532840       0.14505732       0.00000000
         0.00000000         0.00000000         0.00000000
        -0.16675804        -0.23256471         0.03345930
        -1.16659172         0.04909586
         0.00000000         0.00000000         0.00000000
        -0.15273425        -0.24658849        22.73999827

    34   FLAT SHELL     1       0.83360640       0.17497399       0.00000000
         0.00000000         0.00000000         0.00000000
        -0.20339783        -0.20128376        -0.02863534
        -1.15668384         1.19013215
         0.00000000         0.00000000         0.00000000
        -0.23099563        -0.17368595        43.94298188

    35   FLAT SHELL     1       0.60125652       0.18770656       0.00000000
         0.00000000         0.00000000         0.00000000
        -0.22474169        -0.28055707         0.06226746
        -0.78050634        -0.49127459
         0.00000000         0.00000000         0.00000000
        -0.18441394        -0.32088482        32.92926283

    36   FLAT SHELL     1       0.71395584       0.49219355       0.00000000
         0.00000000         0.00000000         0.00000000
        -0.25085742        -0.15250861         0.07205126
         0.58509826        -0.44847286
         0.00000000         0.00000000         0.00000000
        -0.28891550        -0.11445053       -27.84338915

    37   FLAT SHELL     1       0.69602292       0.41382136       0.00000000
         0.00000000         0.00000000         0.00000000
        -0.27811016        -0.23425306         0.05985846
         1.00751013        -0.62511788
         0.00000000         0.00000000         0.00000000
        -0.31993031        -0.19243291       -34.94009924

    38   FLAT SHELL     1       0.65735215       0.54265914       0.00000000
         0.00000000         0.00000000         0.00000000
        -0.16615850        -0.06824276         0.02654333
         2.09723347        -1.47523978
         0.00000000         0.00000000         0.00000000
        -0.17289104        -0.06151023       -14.23254010

    39   FLAT SHELL     1       0.38105480       0.32315665       0.00000000
         0.00000000         0.00000000         0.00000000
        -0.00027427        -0.13990645         0.03765541
         1.69245529        -1.37642528
         0.00000000         0.00000000         0.00000000
         0.00923313        -0.14941385        14.17013631

    40   FLAT SHELL     1       0.80074313       0.59244702       0.00000000
         0.00000000         0.00000000         0.00000000
        -0.23666910        -0.08168695         0.07172116
         0.67509766         0.24953060
         0.00000000         0.00000000         0.00000000
        -0.26476586        -0.05359018       -21.39276225

    41   FLAT SHELL     1       0.61847623       0.38598402       0.00000000
         0.00000000         0.00000000         0.00000000
        -0.21809832        -0.21489595         0.06859957
         0.60923283        -0.61877766
         0.00000000         0.00000000         0.00000000
        -0.28511538        -0.14787888       -44.33144893

    42   FLAT SHELL     1       0.28755540       0.16804475       0.00000000
         0.00000000         0.00000000         0.00000000
         0.01862433        -0.14263823         0.04284303
        -0.08246905        -1.38140998
         0.00000000         0.00000000         0.00000000
         0.02929983        -0.15331373        13.99186092

    43   FLAT SHELL     1       0.59654118       0.31117377       0.00000000
         0.00000000         0.00000000         0.00000000
        -0.24047079        -0.27968176         0.05848516
         0.65196275        -0.97130993
         0.00000000         0.00000000         0.00000000
        -0.19839249        -0.32176006        35.73386920

    44   FLAT SHELL     1       0.55754163       0.44322372       0.00000000
         0.00000000         0.00000000         0.00000000
        -0.12969669        -0.13046287         0.02208788
         1.89416611        -1.89995372
         0.00000000         0.00000000         0.00000000
        -0.10798857        -0.15217098        44.50317916

    45   FLAT SHELL     1       0.67886751       0.62113249       0.00000000
         0.00000000         0.00000000         0.00000000
        -0.14192995         0.00152065         0.03772003
         1.36989864        -1.69706966
         0.00000000         0.00000000         0.00000000
        -0.15124366         0.01083435       -13.86984652

    46   FLAT SHELL     1       0.14225474       0.06324189       0.00000000
         0.00000000         0.00000000         0.00000000
         0.04767132        -0.02147391         0.02155154
        -0.38189896        -0.71500194
         0.00000000         0.00000000         0.00000000
         0.05383855        -0.02764114        15.96909556

    47   FLAT SHELL     1       0.93620643       0.85747100       0.00000000
         0.00000000         0.00000000         0.00000000
        -0.02205462         0.04869135         0.02261301
         0.70222124         0.38097861
         0.00000000         0.00000000         0.00000000
        -0.02866492         0.05530165       -16.29485272

    48   FLAT SHELL     1       0.47905699       0.42169707       0.00000000
         0.00000000         0.00000000         0.00000000
        -0.04428598        -0.09896023         0.03834475
         1.82245889        -1.69465185
         0.00000000         0.00000000         0.00000000
        -0.02453130        -0.11871491        27.25689582

    49   FLAT SHELL     1       0.57848463       0.52152665       0.00000000
         0.00000000         0.00000000         0.00000000
        -0.09817729        -0.04415120         0.03809241
         1.69364860        -1.82115470
         0.00000000         0.00000000         0.00000000
        -0.11786260        -0.02446589       -27.32891401

    50   FLAT SHELL     1       0.46011179       0.34485372       0.00000000
         0.00000000         0.00000000         0.00000000
        -0.06818144        -0.16369884         0.02594832
         1.42557997        -2.09468299
         0.00000000         0.00000000         0.00000000
        -0.06158750        -0.17029277        14.25808811

    51   FLAT SHELL     1       0.19225474       0.02990856       0.00000000
         0.00000000         0.00000000         0.00000000
        -0.00390629        -0.06495509         0.04682225
        -0.80661262         0.08739222
         0.00000000         0.00000000         0.00000000
         0.02146262        -0.09032400        28.44941810

    52   FLAT SHELL     1       0.96953976       0.80747100       0.00000000
         0.00000000         0.00000000         0.00000000
        -0.06307566        -0.00331838         0.04709276
        -0.09319596         0.79657712
         0.00000000         0.00000000         0.00000000
        -0.08896852         0.02257449       -28.80317869

    53   FLAT SHELL     1       0.51666137       0.29157012       0.00000000
         0.00000000         0.00000000         0.00000000
        -0.16091591        -0.25002931         0.07411057
         0.43701474        -0.67793010
         0.00000000         0.00000000         0.00000000
        -0.11899905        -0.29194616        29.49245254

    54   FLAT SHELL     1       0.83038902       0.71798332       0.00000000
         0.00000000         0.00000000         0.00000000
        -0.14158461         0.02304227         0.03910494
         1.33604586         0.03692721
         0.00000000         0.00000000         0.00000000
        -0.15040129         0.03185895       -12.70557951

    55   FLAT SHELL     1       0.96651863       0.18738166       0.00000000
         0.00000000         0.00000000         0.00000000
        -0.05040746        -0.00845273        -0.06186118
         0.11113235         2.21132762
         0.00000000         0.00000000         0.00000000
        -0.09475127         0.03589107        35.63400141

    56   FLAT SHELL     1       0.16725474       0.12990856       0.00000000
         0.00000000         0.00000000         0.00000000
         0.02525860        -0.09653206         0.01929696
         0.58091927        -0.39956950
         0.00000000         0.00000000         0.00000000
         0.02824295        -0.09951642         8.79137518

    57   FLAT SHELL     1       0.86953976       0.83247100       0.00000000
         0.00000000         0.00000000         0.00000000
        -0.09494121         0.02640561         0.01855216
         0.41310021        -0.60138505
         0.00000000         0.00000000         0.00000000
        -0.09771420         0.02917860        -8.50105398

    58   FLAT SHELL     1       0.96487997       0.31063992       0.00000000
         0.00000000         0.00000000         0.00000000
        -0.07271937        -0.05684808         0.01145005
        -0.06849238         2.47066960
         0.00000000         0.00000000         0.00000000
        -0.07871492        -0.05085253       -27.63774037

    59   FLAT SHELL     1       0.69228813       0.03740050       0.00000000
         0.00000000         0.00000000         0.00000000
        -0.05830574        -0.07753562         0.00945033
        -2.42215672         0.05560210
         0.00000000         0.00000000         0.00000000
        -0.05443900        -0.08140237        22.25266463

    60   FLAT SHELL     1       0.56427368       0.03819282       0.00000000
         0.00000000         0.00000000         0.00000000
        -0.08170584        -0.10043388         0.06329505
        -2.33005479         0.19881099
         0.00000000         0.00000000         0.00000000
        -0.02708589        -0.15505383        40.79228494

    61   FLAT SHELL     1       0.95632628       0.56044749       0.00000000
         0.00000000         0.00000000         0.00000000
        -0.11652500        -0.08053489         0.08225129
        -0.27495400         1.81305258
         0.00000000         0.00000000         0.00000000
        -0.18272672        -0.01433317       -38.82959815

    62   FLAT SHELL     1       0.96310018       0.43213245       0.00000000
         0.00000000         0.00000000         0.00000000
        -0.09757531        -0.08107668         0.06190369
        -0.17064246         2.36935606
         0.00000000         0.00000000         0.00000000
        -0.15177692        -0.02687507       -41.20472829

    63   FLAT SHELL     1       0.93139860       0.24802158       0.00000000
         0.00000000         0.00000000         0.00000000
        -0.11870664        -0.12945842        -0.01800240
        -0.39545855         2.37417199
         0.00000000         0.00000000         0.00000000
        -0.10529459        -0.14287046       -36.68664374

    64   FLAT SHELL     1       0.28568709       0.23383270       0.00000000
         0.00000000         0.00000000         0.00000000
         0.01801215        -0.14538617         0.03429553
         1.56202017        -1.20338035
         0.00000000         0.00000000         0.00000000
         0.02491850        -0.15229252        11.38580102

    65   FLAT SHELL     1       0.43628966       0.03338261       0.00000000
         0.00000000         0.00000000         0.00000000
        -0.07526906        -0.09892984         0.08486573
        -1.91697716         0.21753562
         0.00000000         0.00000000         0.00000000
        -0.00141310        -0.17278580        41.03201933

    66   FLAT SHELL     1       0.42419423       0.16151214       0.00000000
         0.00000000         0.00000000         0.00000000
        -0.09770897        -0.21255897         0.07116965
        -0.67742751        -1.21920966
         0.00000000         0.00000000         0.00000000
        -0.06368590        -0.24658204        25.55040697

    67   FLAT SHELL     1       0.85863810       0.24261423       0.00000000
         0.00000000         0.00000000         0.00000000
        -0.19004754        -0.15130986        -0.02323425
        -0.37047929         1.32175227
         0.00000000         0.00000000         0.00000000
        -0.20092738        -0.14043002        25.09214860

    68   FLAT SHELL     1       0.96483968       0.69044961       0.00000000
         0.00000000         0.00000000         0.00000000
        -0.08573603        -0.04719442         0.08073874
        -0.18302245         1.24969987
         0.00000000         0.00000000         0.00000000
        -0.14947190         0.01654145       -38.28787233

    69   FLAT SHELL     1       0.31020165       0.03421204       0.00000000
         0.00000000         0.00000000         0.00000000
        -0.04574980        -0.08120278         0.07739343
        -1.32307740         0.17046674
         0.00000000         0.00000000         0.00000000
         0.01592126        -0.14287384        38.54963873

    70   FLAT SHELL     1       0.63156181       0.07559332       0.00000000
         0.00000000         0.00000000         0.00000000
        -0.13612579        -0.13183371         0.04304023
        -2.34553154        -0.12012766
         0.00000000         0.00000000         0.00000000
        -0.17707345        -0.09088605       -43.57276353

    71   FLAT SHELL     1       0.92798015       0.36777237       0.00000000
         0.00000000         0.00000000         0.00000000
        -0.12494312        -0.13145062         0.04386035
         0.17107964         2.36474408
         0.00000000         0.00000000         0.00000000
        -0.08421600        -0.17217774        42.87866204

    72   FLAT SHELL     1       0.91942645       0.49257993       0.00000000
         0.00000000         0.00000000         0.00000000
        -0.12531228        -0.11082425         0.07794550
         0.70426473         1.98962310
         0.00000000         0.00000000         0.00000000
        -0.19634966        -0.03978687       -42.34517777

    73   FLAT SHELL     1       0.50056334       0.07157543       0.00000000
         0.00000000         0.00000000         0.00000000
        -0.10202196        -0.11700442         0.07359538
        -2.18064543        -0.50658108
         0.00000000         0.00000000         0.00000000
        -0.03553753        -0.18348886        42.09395689

    74   FLAT SHELL     1       0.92116596       0.62589710       0.00000000
         0.00000000         0.00000000         0.00000000
        -0.10160023        -0.04910311         0.07278541
         0.67215954         1.73692511
         0.00000000         0.00000000         0.00000000
        -0.15272545         0.00202211       -35.08460213

    75   FLAT SHELL     1       0.75713640       0.07206685       0.00000000
         0.00000000         0.00000000         0.00000000
        -0.13231505        -0.11961042        -0.01849435
        -2.37517182         0.43512808
         0.00000000         0.00000000         0.00000000
        -0.14551760        -0.10640787        35.52188280

    76   FLAT SHELL     1       0.76554934       0.71920038       0.00000000
         0.00000000         0.00000000         0.00000000
        -0.14156684         0.02349525         0.03179173
         1.20137673        -1.52115949
         0.00000000         0.00000000         0.00000000
        -0.14747836         0.02940677       -10.53357553

    77   FLAT SHELL     1       0.37149131       0.06759465       0.00000000
         0.00000000         0.00000000         0.00000000
        -0.04256142        -0.08508628         0.07577229
        -1.74793474        -0.74384004
         0.00000000         0.00000000         0.00000000
         0.01487513        -0.14252284        37.16268554

    78   FLAT SHELL     1       0.81484827       0.03466635       0.00000000
         0.00000000         0.00000000         0.00000000
        -0.00855913        -0.05057264        -0.06335091
        -2.13026945        -0.12580341
         0.00000000         0.00000000         0.00000000
         0.03717706        -0.09630884       -35.82740657

    79   FLAT SHELL     1       0.42729270       0.21795284       0.00000000
         0.00000000         0.00000000         0.00000000
        -0.10499056        -0.24671172         0.07696703
         0.06873058        -0.66872887
         0.00000000         0.00000000         0.00000000
        -0.07123209        -0.28047019        23.68271259

    80   FLAT SHELL     1       0.75166275       0.37280091       0.00000000
         0.00000000         0.00000000         0.00000000
        -0.28401880        -0.22412345         0.05601637
         0.17395858         0.48346973
         0.00000000         0.00000000         0.00000000
        -0.31759039        -0.19055186       -30.93499359

    81   FLAT SHELL     1       0.96971003       0.07195664       0.00000000
         0.00000000         0.00000000         0.00000000
        -0.00104702         0.07165995        -0.15411203
         0.28313152         1.70325176
         0.00000000         0.00000000         0.00000000
        -0.12303523         0.19364817        38.36356756

    82   FLAT SHELL     1       0.92804336       0.03028997       0.00000000
         0.00000000         0.00000000         0.00000000
         0.07132427        -0.00186484        -0.15442259
        -1.70102763        -0.28299698
         0.00000000         0.00000000         0.00000000
         0.19342911        -0.12396968       -38.33408426

    83   FLAT SHELL     1       0.75563190       0.30119248       0.00000000
         0.00000000         0.00000000         0.00000000
        -0.28637518        -0.25046410         0.03784155
        -0.15559677         0.30425750
         0.00000000         0.00000000         0.00000000
        -0.31030502        -0.22653427       -32.30800147

    84   FLAT SHELL     1       0.86771278       0.76458728       0.00000000
         0.00000000         0.00000000         0.00000000
        -0.10051104         0.00296692         0.04195850
         0.90691840        -0.80993107
         0.00000000         0.00000000         0.00000000
        -0.11538616         0.01784204       -19.52041895

    85   FLAT SHELL     1       0.23578972       0.13078727       0.00000000
         0.00000000         0.00000000         0.00000000
        -0.00245634        -0.10376207         0.04521152
         0.80654657        -0.89683536
         0.00000000         0.00000000         0.00000000
         0.01478625        -0.12100467        20.87566325

    86   FLAT SHELL     1       0.71027403       0.25681694       0.00000000
         0.00000000         0.00000000         0.00000000
        -0.25676829        -0.28373305         0.03828950
        -0.28103626         0.22528253
         0.00000000         0.00000000         0.00000000
        -0.22965682        -0.31084452        35.30098702

    87   FLAT SHELL     1       0.85338197       0.63676414       0.00000000
         0.00000000         0.00000000         0.00000000
        -0.19859054        -0.07766701         0.07786505
         0.76642491        -0.35948563
         0.00000000         0.00000000         0.00000000
        -0.23671169        -0.03954586       -26.08543165

    88   FLAT SHELL     1       0.86210461       0.35661191       0.00000000
         0.00000000         0.00000000         0.00000000
        -0.22794054        -0.16322005         0.03500777
        -0.05949654         1.22016293
         0.00000000         0.00000000         0.00000000
        -0.24325344        -0.14790714       -23.62526682

    89   FLAT SHELL     1       0.36674188       0.25698935       0.00000000
         0.00000000         0.00000000         0.00000000
        -0.01152872        -0.15811931         0.02599476
         1.03627844        -1.83599078
         0.00000000         0.00000000         0.00000000
        -0.00705559        -0.16259244         9.76372891

    90   FLAT SHELL     1       0.63958411       0.25894070       0.00000000
         0.00000000         0.00000000         0.00000000
        -0.23135209        -0.28265483         0.05525182
        -0.39020259        -0.12232564
         0.00000000         0.00000000         0.00000000
        -0.19608749        -0.31791944        32.54815143

    91   FLAT SHELL     1       0.36551173       0.13476069       0.00000000
         0.00000000         0.00000000         0.00000000
        -0.07670757        -0.19966600         0.07950950
         0.01400528        -0.29180318
         0.00000000         0.00000000         0.00000000
        -0.03768078        -0.23869278        26.14384597

    92   FLAT SHELL     1       0.82049500       0.40383973       0.00000000
         0.00000000         0.00000000         0.00000000
        -0.27514055        -0.21729676         0.06208103
         0.57017608         0.87159783
         0.00000000         0.00000000         0.00000000
        -0.31470610        -0.17773121       -32.51022283

    93   FLAT SHELL     1       0.74441685       0.64033286       0.00000000
         0.00000000         0.00000000         0.00000000
        -0.15074189        -0.00803540         0.02718516
         1.88188047        -1.11561164
         0.00000000         0.00000000         0.00000000
        -0.15574517        -0.00303212       -10.42827072

    94   FLAT SHELL     1       0.93437944       0.74792061       0.00000000
         0.00000000         0.00000000         0.00000000
        -0.04853254         0.01227497         0.05664672
         0.71620377         1.19421007
         0.00000000         0.00000000         0.00000000
        -0.08241905         0.04616149       -30.88819870

    95   FLAT SHELL     1       0.25245639       0.06412060       0.00000000
         0.00000000         0.00000000         0.00000000
         0.00930374        -0.04926533         0.05697021
        -1.21537886        -0.74628856
         0.00000000         0.00000000         0.00000000
         0.04407534        -0.08403693        31.39768277

    96   FLAT SHELL     1       0.49815519       0.23083654       0.00000000
         0.00000000         0.00000000         0.00000000
        -0.16866059        -0.26511227         0.06763077
         0.16751960        -1.14048263
         0.00000000         0.00000000         0.00000000
        -0.13382228        -0.29995059        27.25413379

    97   FLAT SHELL     1       0.93622866       0.13433829       0.00000000
         0.00000000         0.00000000         0.00000000
        -0.09276265        -0.07999698        -0.08884977
        -1.17745748         1.72701750
         0.00000000         0.00000000         0.00000000
        -0.17545856         0.00269892        42.94550734

    98   FLAT SHELL     1       0.82624393       0.29407211       0.00000000
         0.00000000         0.00000000         0.00000000
        -0.25733292        -0.23245673         0.01745105
        -0.23283265         1.26925911
         0.00000000         0.00000000         0.00000000
        -0.26632484        -0.22346481       -27.26047220

    99   FLAT SHELL     1       0.86789163       0.06495632       0.00000000
         0.00000000         0.00000000         0.00000000
        -0.08000174        -0.09247570        -0.09018991
        -1.75389652         1.20053934
         0.00000000         0.00000000         0.00000000
         0.00416658        -0.17664402       -43.02203731

   100   FLAT SHELL     1       0.87607693       0.12733798       0.00000000
         0.00000000         0.00000000         0.00000000
        -0.07793477        -0.07747567        -0.09576456
        -0.83464859         0.91183503
         0.00000000         0.00000000         0.00000000
        -0.17347005         0.01805962        44.93133080

   101   FLAT SHELL     1       0.49444749       0.13253892       0.00000000
         0.00000000         0.00000000         0.00000000
        -0.13845444        -0.23266309         0.08412860
        -0.64951523        -0.32537517
         0.00000000         0.00000000         0.00000000
        -0.08914072        -0.28197681        30.37758020

   102   FLAT SHELL     1       0.53970741       0.17920605       0.00000000
         0.00000000         0.00000000         0.00000000
        -0.16836239        -0.26384782         0.06738467
        -0.98329124        -0.29205246
         0.00000000         0.00000000         0.00000000
        -0.13352145        -0.29868876        27.34102310


*** Reactions:
    (global/specified coordinate system)

Reaction count (itfix)
Number of the point (kpoin)
Number of the degree of freedom (kdofn)
Number of the specified coordinate system (isscs)
  ( 0 - global coordinate system)
  (-1 - local coordinate system in coplanar nodes)
Reaction value (react)

 itfix    kpoin  kdofn  isscs          react
     1        1      1      0         0.0000000000
     2        1      2      0         0.0000000000
     3        1      3      0         0.8708463851
     4        1      4      0        -0.0014612462
     5        1      5      0        -0.1928219804
     6        1      6      0         0.0000000000
     7        2      1      0         0.0000000000
     8        2      2      0         0.0000000000
     9        2      3      0         2.6327932056
    10        2      4      0         0.2610345614
    11        2      5      0         0.2606401159
    12        2      6      0         0.0000000000
    13        3      1      0         0.0000000000
    14        3      2      0         0.0000000000
    15        3      3      0         0.8712413305
    16        3      4      0        -0.1931246040
    17        3      5      0        -0.0014736411
    18        3      6      0         0.0000000000
    19       18      1      0         0.0000000000
    20       18      2      0         0.0000000000
    21       18      3      0         0.0840447950
    22       19      1      0         0.0000000000
    23       19      2      0         0.0000000000
    24       19      3      0         0.2783241543
    25       20      1      0         0.0000000000
    26       20      2      0         0.0000000000
    27       20      3      0         0.3991323448
    28       21      1      0         0.0000000000
    29       21      2      0         0.0000000000
    30       21      3      0         0.5205728461
    31       22      1      0         0.0000000000
    32       22      2      0         0.0000000000
    33       22      3      0         0.5614002521
    34       23      1      0         0.0000000000
    35       23      2      0         0.0000000000
    36       23      3      0         0.5141954692
    37       24      1      0         0.0000000000
    38       24      2      0         0.0000000000
    39       24      3      0         0.4076494573
    40       25      1      0         0.0000000000
    41       25      2      0         0.0000000000
    42       25      3      0         0.2762084346
    43       26      1      0         0.0000000000
    44       26      2      0         0.0000000000
    45       26      3      0         0.0835913256


Reaction sum

X1 direction =>     sum =       0.00000000
X2 direction =>     sum =       0.00000000
X3 direction =>     sum =       7.50000000

  =======================================================================

Load case n.        2

Q


*** Nodal displacements:
    (There are shell elements in the mesh.)
    (The nodes belonging to this elements have:)
    (delta-x,delta-y and delta-z in global coordinate system)
    (kink node => delta-tx, delta-ty and delta-tz in global coordinate system)
    (coplanar node => delta-tx and delta-ty in local coordinate system)

Point number (ipoin)
X displacement (delta-x)
Y displacement (delta-y)
Z displacement (delta-z)
Theta-X rotation (delta-tx)
Theta-Y rotation (delta-ty)
Theta-Z rotation (delta-tz)

 ipoin    nodty             delta-x            delta-y            delta-z
                            delta-tx           delta-ty           delta-tz
     1  KINK FIXD          0.00000000         0.00000000         0.00000000
                           0.00000000         0.00000000         0.00000000
     2  KINK FIXD          0.00000000         0.00000000         0.00000000
                           0.00000000         0.00000000         0.00000000
     3  KINK FIXD          0.00000000         0.00000000         0.00000000
                           0.00000000         0.00000000         0.00000000
     4  KINK FREE          0.00000000         0.00000000        -0.00000002
                           0.00000016         0.00000021         0.00000000
     5  KINK FREE          0.00000000         0.00000000        -0.00000005
                           0.00000018         0.00000024         0.00000000
     6  KINK FREE          0.00000000         0.00000000        -0.00000007
                           0.00000020         0.00000015         0.00000000
     7  KINK FREE          0.00000000         0.00000000        -0.00000008
                           0.00000018         0.00000000         0.00000000
     8  KINK FREE          0.00000000         0.00000000        -0.00000007
                           0.00000011        -0.00000015         0.00000000
     9  KINK FREE          0.00000000         0.00000000        -0.00000005
                           0.00000002        -0.00000024         0.00000000
    10  KINK FREE          0.00000000         0.00000000        -0.00000002
                          -0.00000009        -0.00000021         0.00000000
    11  KINK FREE          0.00000000         0.00000000        -0.00000002
                          -0.00000021        -0.00000008         0.00000000
    12  KINK FREE          0.00000000         0.00000000        -0.00000005
                          -0.00000024         0.00000002         0.00000000
    13  KINK FREE          0.00000000         0.00000000        -0.00000007
                          -0.00000015         0.00000012         0.00000000
    14  KINK FREE          0.00000000         0.00000000        -0.00000008
                           0.00000000         0.00000018         0.00000000
    15  KINK FREE          0.00000000         0.00000000        -0.00000007
                           0.00000015         0.00000020         0.00000000
    16  KINK FREE          0.00000000         0.00000000        -0.00000005
                           0.00000024         0.00000018         0.00000000
    17  KINK FREE          0.00000000         0.00000000        -0.00000002
                           0.00000021         0.00000016         0.00000000
    18  KINK FIXD          0.00000000         0.00000000         0.00000000
                           0.00000019         0.00000019         0.00000000
    19  KINK FIXD          0.00000000         0.00000000         0.00000000
                           0.00000017         0.00000017         0.00000000
    20  KINK FIXD          0.00000000         0.00000000         0.00000000
                           0.00000014         0.00000014         0.00000000
    21  KINK FIXD          0.00000000         0.00000000         0.00000000
                           0.00000012         0.00000012         0.00000000
    22  KINK FIXD          0.00000000         0.00000000         0.00000000
                           0.00000012         0.00000012         0.00000000
    23  KINK FIXD          0.00000000         0.00000000         0.00000000
                           0.00000012         0.00000012         0.00000000
    24  KINK FIXD          0.00000000         0.00000000         0.00000000
                           0.00000014         0.00000014         0.00000000
    25  KINK FIXD          0.00000000         0.00000000         0.00000000
                           0.00000017         0.00000017         0.00000000
    26  KINK FIXD          0.00000000         0.00000000         0.00000000
                           0.00000019         0.00000019         0.00000000
    27  COPL FREE          0.00000000         0.00000000        -0.00000005
                          -0.00000008         0.00000005
    28  COPL FREE          0.00000000         0.00000000        -0.00000002
                           0.00000011         0.00000010
    29  COPL FREE          0.00000000         0.00000000        -0.00000005
                           0.00000004        -0.00000008
    30  COPL FREE          0.00000000         0.00000000        -0.00000003
                           0.00000010         0.00000014
    31  COPL FREE          0.00000000         0.00000000        -0.00000006
                           0.00000017         0.00000008
    32  COPL FREE          0.00000000         0.00000000        -0.00000005
                           0.00000008         0.00000016
    33  COPL FREE          0.00000000         0.00000000        -0.00000002
                           0.00000010         0.00000011
    34  COPL FREE          0.00000000         0.00000000        -0.00000004
                           0.00000006         0.00000006
    35  COPL FREE          0.00000000         0.00000000        -0.00000004
                           0.00000011         0.00000005
    36  COPL FREE          0.00000000         0.00000000        -0.00000004
                           0.00000005         0.00000011
    37  COPL FREE          0.00000000         0.00000000        -0.00000003
                           0.00000014         0.00000010
    38  COPL FREE          0.00000000         0.00000000        -0.00000003
                          -0.00000010        -0.00000003
    39  COPL FREE          0.00000000         0.00000000        -0.00000004
                          -0.00000001         0.00000000
    40  COPL FREE          0.00000000         0.00000000        -0.00000004
                           0.00000016         0.00000018
    41  COPL FREE          0.00000000         0.00000000        -0.00000004
                           0.00000018         0.00000016
    42  COPL FREE          0.00000000         0.00000000        -0.00000006
                           0.00000012        -0.00000001
    43  COPL FREE          0.00000000         0.00000000        -0.00000006
                          -0.00000002         0.00000012
    44  COPL FREE          0.00000000         0.00000000        -0.00000003
                          -0.00000004        -0.00000009
    45  COPL FREE          0.00000000         0.00000000        -0.00000002
                           0.00000019         0.00000018
    46  COPL FREE          0.00000000         0.00000000        -0.00000002
                           0.00000018         0.00000019
    47  COPL FREE          0.00000000         0.00000000        -0.00000005
                           0.00000006         0.00000000
    48  COPL FREE          0.00000000         0.00000000        -0.00000003
                           0.00000016         0.00000013
    49  COPL FREE          0.00000000         0.00000000        -0.00000002
                          -0.00000007        -0.00000007
    50  COPL FREE          0.00000000         0.00000000        -0.00000002
                           0.00000013         0.00000016
    51  COPL FREE          0.00000000         0.00000000        -0.00000005
                          -0.00000000         0.00000007
    52  COPL FREE          0.00000000         0.00000000        -0.00000004
                           0.00000014         0.00000007

*** Element forces/stresses/resultant stresses
            principal stresses/resultant stresses

Frame element (3D):

Generalized forces at the bar extremities:
    (local coordinate system)
    (same sign convention for both extremities)

Element number (ielem)
Element type (ntype)
Node number (inode)
X axial force (Nx)
Y shear force (Vy)
Z shear force (Vz)
X torsion moment (Tx)
Y bending moment (My)
Z bending moment (Mz)

 ielem  ntype  inode      coord ...
          Nx                 Vy                 Vz
          Tx                 My                 Mz

 .............................................................

Flat shell element:

Resultant stresses in the Gauss points:
    (local coordinate system)

Element number (ielem)
Element type (ntype)
Gauss point number (igtst)
Gauss point global coordinates (gpcot)
X normal force (Nx)
Y normal force (Ny)
XY shear force (Nxy)
ZX bending moment (Mzx)
ZY bending moment (Mzy)
XY twisting moment (Mxy)
YZ shear force (Qyz)
ZX shear force (Qzx)
Principal membrane force (N1)
Principal membrane force (N2)
Angle of principal membrane force N1 with X axis - degrees (Angng)
Principal bending moment (M1)
Principal bending moment (M2)
Angle of principal moment M1 with X axis - degrees (Angmg)

 ielem  ntype  igtst      gpcot ...
          Nx                 Ny                 Nxy
          Mzx                Mzy                Mxy
          Qyz                Qzx
          N1                 N2                Angng
          M1                 M2                Angmg

 .............................................................

     1   FRAME 3D       1       0.00000000       0.00000000       0.00000000
         0.00000000         0.00000000         9.86128953
        -0.00010063        -1.59125585         0.00000000
     1   FRAME 3D       2       0.12500000       0.00000000       0.00000000
         0.00000000         0.00000000        -7.36128953
         0.00010063         0.51484466         0.00000000

     2   FRAME 3D       1       0.12500000       0.00000000       0.00000000
         0.00000000         0.00000000         7.28250125
        -0.00001237        -0.54175337         0.00000000
     2   FRAME 3D       2       0.25000000       0.00000000       0.00000000
         0.00000000         0.00000000        -4.78250125
         0.00001237        -0.21230929         0.00000000

     3   FRAME 3D       1       0.25000000       0.00000000       0.00000000
         0.00000000         0.00000000         4.78667798
        -0.00000815         0.19319151         0.00000000
     3   FRAME 3D       2       0.37500000       0.00000000       0.00000000
         0.00000000         0.00000000        -2.28667798
         0.00000815        -0.63527625         0.00000000

     4   FRAME 3D       1       0.37500000       0.00000000       0.00000000
         0.00000000         0.00000000         2.38058459
         0.00001173         0.62729313         0.00000000
     4   FRAME 3D       2       0.50000000       0.00000000       0.00000000
         0.00000000         0.00000000         0.11941541
        -0.00001173        -0.76861621         0.00000000

     5   FRAME 3D       1       0.50000000       0.00000000       0.00000000
         0.00000000         0.00000000         0.00100418
         0.00003969         0.77546891         0.00000000
     5   FRAME 3D       2       0.62500000       0.00000000       0.00000000
         0.00000000         0.00000000         2.49899582
        -0.00003969        -0.61934444         0.00000000

     6   FRAME 3D       1       0.62500000       0.00000000       0.00000000
         0.00000000         0.00000000        -2.40393239
         0.00005982         0.64361581         0.00000000
     6   FRAME 3D       2       0.75000000       0.00000000       0.00000000
         0.00000000         0.00000000         4.90393239
        -0.00005982        -0.18687426         0.00000000

     7   FRAME 3D       1       0.75000000       0.00000000       0.00000000
         0.00000000         0.00000000        -4.88558266
         0.00006245         0.22357784         0.00000000
     7   FRAME 3D       2       0.87500000       0.00000000       0.00000000
         0.00000000         0.00000000         7.38558266
        -0.00006245         0.54336999         0.00000000

     8   FRAME 3D       1       1.00000000       0.00000000       0.00000000
         0.00000000         0.00000000         9.97520933
        -0.00005252        -1.60083081         0.00000000
     8   FRAME 3D       2       0.87500000       0.00000000       0.00000000
         0.00000000         0.00000000        -7.47520933
         0.00005252         0.51017964         0.00000000

     9   FRAME 3D       1       1.00000000       0.00000000       0.00000000
         0.00000000         0.00000000         9.97476670
         0.00005213        -1.60098747         0.00000000
     9   FRAME 3D       2       1.00000000       0.12500000       0.00000000
         0.00000000         0.00000000        -7.47476670
        -0.00005213         0.51039163         0.00000000

    10   FRAME 3D       1       1.00000000       0.12500000       0.00000000
         0.00000000         0.00000000         7.38827191
        -0.00006197        -0.54378697         0.00000000
    10   FRAME 3D       2       1.00000000       0.25000000       0.00000000
         0.00000000         0.00000000        -4.88827191
         0.00006197        -0.22349702         0.00000000

    11   FRAME 3D       1       1.00000000       0.25000000       0.00000000
         0.00000000         0.00000000         4.91162865
        -0.00006141         0.18705251         0.00000000
    11   FRAME 3D       2       1.00000000       0.37500000       0.00000000
         0.00000000         0.00000000        -2.41162865
         0.00006141        -0.64475609         0.00000000

    12   FRAME 3D       1       1.00000000       0.37500000       0.00000000
         0.00000000         0.00000000         2.49688858
        -0.00003791         0.62039490         0.00000000
    12   FRAME 3D       2       1.00000000       0.50000000       0.00000000
         0.00000000         0.00000000         0.00311142
         0.00003791        -0.77625597         0.00000000

    13   FRAME 3D       1       1.00000000       0.50000000       0.00000000
         0.00000000         0.00000000         0.11538667
        -0.00001114         0.76722051         0.00000000
    13   FRAME 3D       2       1.00000000       0.62500000       0.00000000
         0.00000000         0.00000000         2.38461333
         0.00001114        -0.62539384         0.00000000

    14   FRAME 3D       1       1.00000000       0.62500000       0.00000000
         0.00000000         0.00000000        -2.28666194
         0.00000741         0.63551618         0.00000000
    14   FRAME 3D       2       1.00000000       0.75000000       0.00000000
         0.00000000         0.00000000         4.78666194
        -0.00000741        -0.19343343         0.00000000

    15   FRAME 3D       1       1.00000000       0.75000000       0.00000000
         0.00000000         0.00000000        -4.78353332
         0.00001227         0.21266068         0.00000000
    15   FRAME 3D       2       1.00000000       0.87500000       0.00000000
         0.00000000         0.00000000         7.28353332
        -0.00001227         0.54153099         0.00000000

    16   FRAME 3D       1       1.00000000       1.00000000       0.00000000
         0.00000000         0.00000000         9.86274169
         0.00010062        -1.59137173         0.00000000
    16   FRAME 3D       2       1.00000000       0.87500000       0.00000000
         0.00000000         0.00000000        -7.36274169
        -0.00010062         0.51477902         0.00000000

    17   FRAME 3D       1       1.00000000       1.00000000       0.00000000
         0.00000000         0.00000000        -0.04558054
         0.00014701         0.00214869         0.00000000
    17   FRAME 3D       2       0.90000000       0.90000000       0.00000000
         0.00000000         0.00000000         0.04558054
        -0.00014701         0.00429737         0.00000000

    18   FRAME 3D       1       0.90000000       0.90000000       0.00000000
         0.00000000         0.00000000        -0.01811102
        -0.00001681         0.00300245         0.00000000
    18   FRAME 3D       2       0.80000000       0.80000000       0.00000000
         0.00000000         0.00000000         0.01811102
         0.00001681        -0.00044116         0.00000000

    19   FRAME 3D       1       0.80000000       0.80000000       0.00000000
         0.00000000         0.00000000         0.04969930
        -0.00002101        -0.00363777         0.00000000
    19   FRAME 3D       2       0.70000000       0.70000000       0.00000000
         0.00000000         0.00000000        -0.04969930
         0.00002101        -0.00339077         0.00000000

    20   FRAME 3D       1       0.70000000       0.70000000       0.00000000
         0.00000000         0.00000000         0.04160963
        -0.00001437        -0.00300942         0.00000000
    20   FRAME 3D       2       0.60000000       0.60000000       0.00000000
         0.00000000         0.00000000        -0.04160963
         0.00001437        -0.00287507         0.00000000

    21   FRAME 3D       1       0.60000000       0.60000000       0.00000000
         0.00000000         0.00000000         0.01848420
        -0.00000620        -0.00178493         0.00000000
    21   FRAME 3D       2       0.50000000       0.50000000       0.00000000
         0.00000000         0.00000000        -0.01848420
         0.00000620        -0.00082913         0.00000000

    22   FRAME 3D       1       0.50000000       0.50000000       0.00000000
         0.00000000         0.00000000        -0.01764361
         0.00000554         0.00087395         0.00000000
    22   FRAME 3D       2       0.40000000       0.40000000       0.00000000
         0.00000000         0.00000000         0.01764361
        -0.00000554         0.00162123         0.00000000

    23   FRAME 3D       1       0.40000000       0.40000000       0.00000000
         0.00000000         0.00000000        -0.04208047
         0.00001590         0.00277320         0.00000000
    23   FRAME 3D       2       0.30000000       0.30000000       0.00000000
         0.00000000         0.00000000         0.04208047
        -0.00001590         0.00317788         0.00000000

    24   FRAME 3D       1       0.30000000       0.30000000       0.00000000
         0.00000000         0.00000000        -0.05096545
         0.00001975         0.00359672         0.00000000
    24   FRAME 3D       2       0.20000000       0.20000000       0.00000000
         0.00000000         0.00000000         0.05096545
        -0.00001975         0.00361088         0.00000000

    25   FRAME 3D       1       0.20000000       0.20000000       0.00000000
         0.00000000         0.00000000         0.01901368
         0.00001713         0.00031203         0.00000000
    25   FRAME 3D       2       0.10000000       0.10000000       0.00000000
         0.00000000         0.00000000        -0.01901368
        -0.00001713        -0.00300098         0.00000000

    26   FRAME 3D       1       0.00000000       0.00000000       0.00000000
         0.00000000         0.00000000        -0.04464662
        -0.00014694         0.00210466         0.00000000
    26   FRAME 3D       2       0.10000000       0.10000000       0.00000000
         0.00000000         0.00000000         0.04464662
         0.00014694         0.00420932         0.00000000

    27   FLAT SHELL     1       0.79179748       0.52278105       0.00000000
         0.00000000         0.00000000         0.00000000
         0.01069359        -0.09821984         0.04627701
        -0.03647092        -0.74592137
         0.00000000         0.00000000         0.00000000
         0.02770082        -0.11522707        20.17884781

    28   FLAT SHELL     1       0.84269681       0.47544768       0.00000000
         0.00000000         0.00000000         0.00000000
        -0.02304201        -0.17461893         0.07780105
        -0.01037105        -0.20017935
         0.00000000         0.00000000         0.00000000
         0.00978304        -0.20744398        22.87537215

    29   FLAT SHELL     1       0.76770923       0.14999283       0.00000000
         0.00000000         0.00000000         0.00000000
        -0.02802248        -0.01007322         0.13649392
        -0.46233646         1.08443122
         0.00000000         0.00000000         0.00000000
        -0.15583650         0.11774080       -43.11907620

    30   FLAT SHELL     1       0.71662756       0.18479048       0.00000000
         0.00000000         0.00000000         0.00000000
        -0.05219785        -0.00740603         0.13699460
         0.21748926        -0.21917555
         0.00000000         0.00000000         0.00000000
        -0.16861511         0.10901123       -40.35770200

    31   FLAT SHELL     1       0.07500000       0.03333333       0.00000000
         0.00000000         0.00000000         0.00000000
         0.43830945        -0.02480268        -0.11097741
         0.12089799         0.15036844
         0.00000000         0.00000000         0.00000000
         0.46352993        -0.05002317       -12.80345384

    32   FLAT SHELL     1       0.96666667       0.92500000       0.00000000
         0.00000000         0.00000000         0.00000000
        -0.02511352         0.43822710        -0.11086420
        -0.15082723        -0.12063493
         0.00000000         0.00000000         0.00000000
        -0.05027390         0.46338748        12.78655918

    33   FLAT SHELL     1       0.64532840       0.14505732       0.00000000
         0.00000000         0.00000000         0.00000000
        -0.14288888        -0.03637215         0.12350407
        -0.14794584         0.64497879
         0.00000000         0.00000000         0.00000000
        -0.22412851         0.04486747       -33.33648011

    34   FLAT SHELL     1       0.83360640       0.17497399       0.00000000
         0.00000000         0.00000000         0.00000000
         0.00837875         0.00862243         0.15020599
        -0.07325739         0.06856332
         0.00000000         0.00000000         0.00000000
        -0.14170545         0.15870662       -44.97676158

    35   FLAT SHELL     1       0.60125652       0.18770656       0.00000000
         0.00000000         0.00000000         0.00000000
        -0.09055468        -0.00045314         0.09931712
         0.74176038         0.15457828
         0.00000000         0.00000000         0.00000000
        -0.15456106         0.06355324       -32.80035197

    36   FLAT SHELL     1       0.71395584       0.49219355       0.00000000
         0.00000000         0.00000000         0.00000000
        -0.02163995        -0.09983795         0.05347861
         0.13342244        -0.08417852
         0.00000000         0.00000000         0.00000000
         0.00550826        -0.12698617        26.91445602

    37   FLAT SHELL     1       0.69602292       0.41382136       0.00000000
         0.00000000         0.00000000         0.00000000
        -0.00101988        -0.04438263         0.06861628
         0.11579977        -0.53724890
         0.00000000         0.00000000         0.00000000
         0.04925898        -0.09466149        36.23225307

    38   FLAT SHELL     1       0.65735215       0.54265914       0.00000000
         0.00000000         0.00000000         0.00000000
         0.03172141        -0.03646446         0.02215819
         0.20044724        -0.45948991
         0.00000000         0.00000000         0.00000000
         0.03828943        -0.04303249        16.51062177

    39   FLAT SHELL     1       0.38105480       0.32315665       0.00000000
         0.00000000         0.00000000         0.00000000
        -0.06680419         0.01562787         0.01384580
         0.18303000        -0.37571587
         0.00000000         0.00000000         0.00000000
        -0.06906767         0.01789134        -9.28443202

    40   FLAT SHELL     1       0.80074313       0.59244702       0.00000000
         0.00000000         0.00000000         0.00000000
         0.00579124        -0.10458520         0.02457891
         0.48740397        -0.45851621
         0.00000000         0.00000000         0.00000000
         0.01101712        -0.10981108        12.00326344

    41   FLAT SHELL     1       0.61847623       0.38598402       0.00000000
         0.00000000         0.00000000         0.00000000
        -0.05754863        -0.05816616         0.06513099
         0.01390622         0.00430180
         0.00000000         0.00000000         0.00000000
         0.00727433        -0.12298912        44.86419051

    42   FLAT SHELL     1       0.28755540       0.16804475       0.00000000
         0.00000000         0.00000000         0.00000000
        -0.06312197         0.01639339        -0.01030081
         0.51678258        -0.28016748
         0.00000000         0.00000000         0.00000000
        -0.06443471         0.01770613         7.26268231

    43   FLAT SHELL     1       0.59654118       0.31117377       0.00000000
         0.00000000         0.00000000         0.00000000
        -0.03901103         0.00383737         0.07052151
         0.50634112        -0.17961167
         0.00000000         0.00000000         0.00000000
        -0.09129083         0.05611717       -36.55069560

    44   FLAT SHELL     1       0.55754163       0.44322372       0.00000000
         0.00000000         0.00000000         0.00000000
         0.00742269         0.00865979         0.02963317
         0.29954221        -0.30757099
         0.00000000         0.00000000         0.00000000
        -0.02159839         0.03768086       -44.40210441

    45   FLAT SHELL     1       0.67886751       0.62113249       0.00000000
         0.00000000         0.00000000         0.00000000
         0.01834089        -0.06280342         0.01199311
         0.38981757        -0.18524756
         0.00000000         0.00000000         0.00000000
         0.02007635        -0.06453888         8.23382681

    46   FLAT SHELL     1       0.14225474       0.06324189       0.00000000
         0.00000000         0.00000000         0.00000000
        -0.03033639        -0.07399818        -0.01400770
        -1.06627789         0.23406464
         0.00000000         0.00000000         0.00000000
        -0.02622883        -0.07810574       -16.34304269

    47   FLAT SHELL     1       0.93620643       0.85747100       0.00000000
         0.00000000         0.00000000         0.00000000
        -0.07347697        -0.02859569        -0.01330454
        -0.24820327         1.06326353
         0.00000000         0.00000000         0.00000000
        -0.07712451        -0.02494815        15.33136762

    48   FLAT SHELL     1       0.47905699       0.42169707       0.00000000
         0.00000000         0.00000000         0.00000000
        -0.04738937        -0.01351943         0.01652327
         0.15869837        -0.24905785
         0.00000000         0.00000000         0.00000000
        -0.05411474        -0.00679406       -22.14750766

    49   FLAT SHELL     1       0.57848463       0.52152665       0.00000000
         0.00000000         0.00000000         0.00000000
        -0.01481960        -0.05052491         0.01775231
         0.25119928        -0.16091685
         0.00000000         0.00000000         0.00000000
        -0.00749564        -0.05784887        22.41926000

    50   FLAT SHELL     1       0.46011179       0.34485372       0.00000000
         0.00000000         0.00000000         0.00000000
        -0.03409490         0.02864417         0.02123529
         0.48194942        -0.20946848
         0.00000000         0.00000000         0.00000000
        -0.04060657         0.03515583       -17.04782124

    51   FLAT SHELL     1       0.19225474       0.02990856       0.00000000
         0.00000000         0.00000000         0.00000000
         0.06359010         0.01132989        -0.06218363
        -0.23841442        -0.41265047
         0.00000000         0.00000000         0.00000000
         0.10491062        -0.02999062       -33.60371380

    52   FLAT SHELL     1       0.96953976       0.80747100       0.00000000
         0.00000000         0.00000000         0.00000000
         0.01157555         0.06353928        -0.06106691
         0.41102946         0.22988777
         0.00000000         0.00000000         0.00000000
        -0.02880692         0.10392176        33.47596012

    53   FLAT SHELL     1       0.51666137       0.29157012       0.00000000
         0.00000000         0.00000000         0.00000000
        -0.09306334        -0.02256516         0.05083676
         0.05792274        -0.07542704
         0.00000000         0.00000000         0.00000000
        -0.11967599         0.00404749       -27.63170710

    54   FLAT SHELL     1       0.83038902       0.71798332       0.00000000
         0.00000000         0.00000000         0.00000000
         0.02193860        -0.06090487        -0.01013051
         0.27858853        -0.50281407
         0.00000000         0.00000000         0.00000000
         0.02315941        -0.06212569        -6.87152236

    55   FLAT SHELL     1       0.96651863       0.18738166       0.00000000
         0.00000000         0.00000000         0.00000000
         0.00967820         0.06110802         0.20996857
        -0.90647988         0.12137104
         0.00000000         0.00000000         0.00000000
        -0.17614425         0.24693047       -41.50886994

    56   FLAT SHELL     1       0.16725474       0.12990856       0.00000000
         0.00000000         0.00000000         0.00000000
        -0.00012910         0.02340479        -0.00681959
        -0.03475284         0.09903161
         0.00000000         0.00000000         0.00000000
        -0.00196244         0.02523813        15.04731214

    57   FLAT SHELL     1       0.86953976       0.83247100       0.00000000
         0.00000000         0.00000000         0.00000000
         0.02302340         0.00109821        -0.00706914
        -0.09809956         0.03209470
         0.00000000         0.00000000         0.00000000
         0.02510501        -0.00098339       -16.40780009

    58   FLAT SHELL     1       0.96487997       0.31063992       0.00000000
         0.00000000         0.00000000         0.00000000
        -0.02996225        -0.20080550         0.19307372
        -0.74100216        -0.12967830
         0.00000000         0.00000000         0.00000000
         0.09574243        -0.32651018        33.06697967

    59   FLAT SHELL     1       0.69228813       0.03740050       0.00000000
         0.00000000         0.00000000         0.00000000
        -0.20225423        -0.03574516         0.19390751
         0.03515806         0.76491882
         0.00000000         0.00000000         0.00000000
        -0.33002444         0.09202504       -33.38182328

    60   FLAT SHELL     1       0.56427368       0.03819282       0.00000000
         0.00000000         0.00000000         0.00000000
        -0.32915380        -0.05052374         0.11632981
         0.30761564         0.40424082
         0.00000000         0.00000000         0.00000000
        -0.37133616        -0.00834138       -19.93115406

    61   FLAT SHELL     1       0.95632628       0.56044749       0.00000000
         0.00000000         0.00000000         0.00000000
        -0.04665033        -0.32751456         0.02198171
         0.02682058        -0.38702034
         0.00000000         0.00000000         0.00000000
        -0.04494035        -0.32922454         4.44813473

    62   FLAT SHELL     1       0.96310018       0.43213245       0.00000000
         0.00000000         0.00000000         0.00000000
        -0.04812886        -0.32883410         0.11862803
        -0.34843274        -0.24381163
         0.00000000         0.00000000         0.00000000
        -0.00471134        -0.37225163        20.10248481

    63   FLAT SHELL     1       0.93139860       0.24802158       0.00000000
         0.00000000         0.00000000         0.00000000
         0.00693736        -0.01949915         0.21599291
         0.16369561        -0.27763571
         0.00000000         0.00000000         0.00000000
         0.21011610        -0.22267789        43.24900059

    64   FLAT SHELL     1       0.28568709       0.23383270       0.00000000
         0.00000000         0.00000000         0.00000000
        -0.05880591         0.03222789         0.00715799
         0.18546059        -0.35290132
         0.00000000         0.00000000         0.00000000
        -0.05936531         0.03278729        -4.46856824

    65   FLAT SHELL     1       0.43628966       0.03338261       0.00000000
         0.00000000         0.00000000         0.00000000
        -0.32778313        -0.04516204         0.01932385
         0.34957594         0.00575410
         0.00000000         0.00000000         0.00000000
        -0.32909826        -0.04384692        -3.89337569

    66   FLAT SHELL     1       0.42419423       0.16151214       0.00000000
         0.00000000         0.00000000         0.00000000
        -0.11402909         0.02458339         0.02520725
         0.88841645        -0.22760808
         0.00000000         0.00000000         0.00000000
        -0.11847080         0.02902510        -9.99337057

    67   FLAT SHELL     1       0.85863810       0.24261423       0.00000000
         0.00000000         0.00000000         0.00000000
        -0.01034599        -0.03291519         0.13865128
        -1.05172663         0.34873595
         0.00000000         0.00000000         0.00000000
         0.11747915        -0.16074033        42.67352293

    68   FLAT SHELL     1       0.96483968       0.69044961       0.00000000
         0.00000000         0.00000000         0.00000000
        -0.02721294        -0.19936027        -0.05119358
         0.32198619        -0.13542476
         0.00000000         0.00000000         0.00000000
        -0.01313942        -0.21343379       -15.37134498

    69   FLAT SHELL     1       0.31020165       0.03421204       0.00000000
         0.00000000         0.00000000         0.00000000
        -0.19792300        -0.02277061        -0.05410908
         0.15871187        -0.33404632
         0.00000000         0.00000000         0.00000000
        -0.21329039        -0.00740322        15.85495276

    70   FLAT SHELL     1       0.63156181       0.07559332       0.00000000
         0.00000000         0.00000000         0.00000000
        -0.12409317         0.02085204         0.15917613
         0.95805840        -0.15036278
         0.00000000         0.00000000         0.00000000
        -0.22651858         0.12327746       -32.76015556

    71   FLAT SHELL     1       0.92798015       0.36777237       0.00000000
         0.00000000         0.00000000         0.00000000
         0.02513679        -0.12547266         0.15911527
         0.11548022        -0.91799831
         0.00000000         0.00000000         0.00000000
         0.12586749        -0.22620336        32.33657038

    72   FLAT SHELL     1       0.91942645       0.49257993       0.00000000
         0.00000000         0.00000000         0.00000000
         0.02584901        -0.16540578         0.06654272
         0.07085540        -1.17430419
         0.00000000         0.00000000         0.00000000
         0.04672283        -0.18627960        17.41614365

    73   FLAT SHELL     1       0.50056334       0.07157543       0.00000000
         0.00000000         0.00000000         0.00000000
        -0.18052568         0.02595370         0.06699552
         1.14504222        -0.24594053
         0.00000000         0.00000000         0.00000000
        -0.20035846         0.04578648       -16.49041037

    74   FLAT SHELL     1       0.92116596       0.62589710       0.00000000
         0.00000000         0.00000000         0.00000000
         0.02233434        -0.13172910        -0.02082943
         0.20548572        -0.93662816
         0.00000000         0.00000000         0.00000000
         0.02510081        -0.13449557        -7.56548518

    75   FLAT SHELL     1       0.75713640       0.07206685       0.00000000
         0.00000000         0.00000000         0.00000000
        -0.00817419         0.01027775         0.21271480
         0.30886794        -0.14816947
         0.00000000         0.00000000         0.00000000
        -0.21186301         0.21396656       -43.75824823

    76   FLAT SHELL     1       0.76554934       0.71920038       0.00000000
         0.00000000         0.00000000         0.00000000
         0.03224806        -0.05887875         0.00721103
         0.36293972        -0.22486969
         0.00000000         0.00000000         0.00000000
         0.03281516        -0.05944585         4.49662619

    77   FLAT SHELL     1       0.37149131       0.06759465       0.00000000
         0.00000000         0.00000000         0.00000000
        -0.14347370         0.02358734        -0.02648750
         0.94624426        -0.14482028
         0.00000000         0.00000000         0.00000000
        -0.14757272         0.02768635         8.79690239

    78   FLAT SHELL     1       0.81484827       0.03466635       0.00000000
         0.00000000         0.00000000         0.00000000
         0.05980397         0.00569147         0.20924473
        -0.21945626         0.93135199
         0.00000000         0.00000000         0.00000000
         0.24373445        -0.17823900        41.31614394

    79   FLAT SHELL     1       0.42729270       0.21795284       0.00000000
         0.00000000         0.00000000         0.00000000
        -0.11940920        -0.00842536         0.03505058
         0.21473605        -0.25913426
         0.00000000         0.00000000         0.00000000
        -0.12955185         0.00171729       -16.13894984

    80   FLAT SHELL     1       0.75166275       0.37280091       0.00000000
         0.00000000         0.00000000         0.00000000
        -0.03239700        -0.10072198         0.09760152
        -0.05376604         0.17748350
         0.00000000         0.00000000         0.00000000
         0.03684811        -0.16996709        35.35446524

    81   FLAT SHELL     1       0.96971003       0.07195664       0.00000000
         0.00000000         0.00000000         0.00000000
         0.17708106         0.50002010         0.02647184
        -0.50061746         0.68393811
         0.00000000         0.00000000         0.00000000
         0.17492551         0.50217565        -4.65521618

    82   FLAT SHELL     1       0.92804336       0.03028997       0.00000000
         0.00000000         0.00000000         0.00000000
         0.49884776         0.17343995         0.02517591
        -0.68453462         0.49685180
         0.00000000         0.00000000         0.00000000
         0.50078403         0.17150368         4.39793878

    83   FLAT SHELL     1       0.75563190       0.30119248       0.00000000
         0.00000000         0.00000000         0.00000000
        -0.02300678        -0.05050520         0.11529766
        -0.54973631        -0.33155210
         0.00000000         0.00000000         0.00000000
         0.07935857        -0.15287055        41.59980440

    84   FLAT SHELL     1       0.86771278       0.76458728       0.00000000
         0.00000000         0.00000000         0.00000000
         0.00026572        -0.07249478        -0.01865835
         0.27526848        -0.04598262
         0.00000000         0.00000000         0.00000000
         0.00477137        -0.07700043       -13.57597082

    85   FLAT SHELL     1       0.23578972       0.13078727       0.00000000
         0.00000000         0.00000000         0.00000000
        -0.07603173         0.00018526        -0.01803199
         0.04616512        -0.27743728
         0.00000000         0.00000000         0.00000000
        -0.08008258         0.00423611        12.66117557

    86   FLAT SHELL     1       0.71027403       0.25681694       0.00000000
         0.00000000         0.00000000         0.00000000
        -0.04462596        -0.02983632         0.11407647
         0.31901401         0.48310060
         0.00000000         0.00000000         0.00000000
        -0.15154703         0.07708476       -43.14554185

    87   FLAT SHELL     1       0.85338197       0.63676414       0.00000000
         0.00000000         0.00000000         0.00000000
        -0.00513627        -0.15030356         0.00249352
         0.15823949        -0.31500823
         0.00000000         0.00000000         0.00000000
        -0.00509345        -0.15034638         0.98377730

    88   FLAT SHELL     1       0.86210461       0.35661191       0.00000000
         0.00000000         0.00000000         0.00000000
        -0.03581825        -0.14767137         0.12588025
        -0.61757136         0.06000151
         0.00000000         0.00000000         0.00000000
         0.04599994        -0.22948957        33.02259755

    89   FLAT SHELL     1       0.36674188       0.25698935       0.00000000
         0.00000000         0.00000000         0.00000000
        -0.06598370         0.03288756         0.00738232
         0.64436776        -0.20967829
         0.00000000         0.00000000         0.00000000
        -0.06653187         0.03343573        -4.24666608

    90   FLAT SHELL     1       0.63958411       0.25894070       0.00000000
         0.00000000         0.00000000         0.00000000
        -0.09720351        -0.03986297         0.10064533
        -0.21689914         0.10093582
         0.00000000         0.00000000         0.00000000
        -0.17318250         0.03611602       -37.04981639

    91   FLAT SHELL     1       0.36551173       0.13476069       0.00000000
         0.00000000         0.00000000         0.00000000
        -0.15184294        -0.00973160         0.00552796
         0.29354225        -0.28844491
         0.00000000         0.00000000         0.00000000
        -0.15205765        -0.00951690        -2.22425698

    92   FLAT SHELL     1       0.82049500       0.40383973       0.00000000
         0.00000000         0.00000000         0.00000000
         0.01049475        -0.09086633         0.09846252
        -0.03200900        -0.79875585
         0.00000000         0.00000000         0.00000000
         0.07055438        -0.15092595        31.38212723

    93   FLAT SHELL     1       0.74441685       0.64033286       0.00000000
         0.00000000         0.00000000         0.00000000
         0.02663469        -0.06702855         0.00334222
         0.18295800        -0.60856598
         0.00000000         0.00000000         0.00000000
         0.02675380        -0.06714766         2.04104528

    94   FLAT SHELL     1       0.93437944       0.74792061       0.00000000
         0.00000000         0.00000000         0.00000000
         0.00041458        -0.05519282        -0.06596192
        -0.09720562        -0.12076500
         0.00000000         0.00000000         0.00000000
         0.04419314        -0.09897139       -33.57201249

    95   FLAT SHELL     1       0.25245639       0.06412060       0.00000000
         0.00000000         0.00000000         0.00000000
        -0.05963361         0.00030997        -0.06841486
         0.13641284         0.09790402
         0.00000000         0.00000000         0.00000000
        -0.10435387         0.04503022        33.17115437

    96   FLAT SHELL     1       0.49815519       0.23083654       0.00000000
         0.00000000         0.00000000         0.00000000
        -0.08372204         0.01482131         0.05080991
         0.76656067        -0.02842160
         0.00000000         0.00000000         0.00000000
        -0.10522709         0.03632636       -22.94027827

    97   FLAT SHELL     1       0.93622866       0.13433829       0.00000000
         0.00000000         0.00000000         0.00000000
        -0.04680424         0.09964001         0.18087168
        -0.26095142         0.62477558
         0.00000000         0.00000000         0.00000000
        -0.16871295         0.22154872       -33.98023156

    98   FLAT SHELL     1       0.82624393       0.29407211       0.00000000
         0.00000000         0.00000000         0.00000000
        -0.00757947        -0.05835541         0.13902118
         0.17025786        -0.25247387
         0.00000000         0.00000000         0.00000000
         0.10835290        -0.17428778        39.82536000

    99   FLAT SHELL     1       0.86789163       0.06495632       0.00000000
         0.00000000         0.00000000         0.00000000
         0.10698546        -0.04478358         0.17540958
        -0.59847062         0.26942385
         0.00000000         0.00000000         0.00000000
         0.22222128        -0.16001939        33.30302461

   100   FLAT SHELL     1       0.87607693       0.12733798       0.00000000
         0.00000000         0.00000000         0.00000000
         0.12113661         0.12455888         0.08852787
        -1.15989919         1.15505857
         0.00000000         0.00000000         0.00000000
         0.03430334         0.21139215       -44.44633983

   101   FLAT SHELL     1       0.49444749       0.13253892       0.00000000
         0.00000000         0.00000000         0.00000000
        -0.19036838        -0.02065440         0.05402478
         0.41214728         0.21587283
         0.00000000         0.00000000         0.00000000
        -0.20610655        -0.00491624       -16.24157332

   102   FLAT SHELL     1       0.53970741       0.17920605       0.00000000
         0.00000000         0.00000000         0.00000000
        -0.13270173        -0.01228466         0.07806080
         0.33156046        -0.27363047
         0.00000000         0.00000000         0.00000000
        -0.17107593         0.02608954       -26.17844251


*** Reactions:
    (global/specified coordinate system)

Reaction count (itfix)
Number of the point (kpoin)
Number of the degree of freedom (kdofn)
Number of the specified coordinate system (isscs)
  ( 0 - global coordinate system)
  (-1 - local coordinate system in coplanar nodes)
Reaction value (react)

 itfix    kpoin  kdofn  isscs          react
     1        1      1      0         0.0000000000
     2        1      2      0         0.0000000000
     3        1      3      0       109.8076132678
     4        1      4      0        -0.0078035283
     5        1      5      0        -1.6100865185
     6        1      6      0         0.0000000000
     7        2      1      0         0.0000000000
     8        2      2      0         0.0000000000
     9        2      3      0        20.0186490518
    10        2      4      0         1.6273661670
    11        2      5      0         1.6271729640
    12        2      6      0         0.0000000000
    13        3      1      0         0.0000000000
    14        3      2      0         0.0000000000
    15        3      3      0       109.8081118507
    16        3      4      0        -1.6101676596
    17        3      5      0        -0.0078323728
    18        3      6      0         0.0000000000
    19       18      1      0         0.0000000000
    20       18      2      0         0.0000000000
    21       18      3      0        -0.0228652370
    22       19      1      0         0.0000000000
    23       19      2      0         0.0000000000
    24       19      3      0         0.1069970264
    25       20      1      0         0.0000000000
    26       20      2      0         0.0000000000
    27       20      3      0         0.0659214479
    28       21      1      0         0.0000000000
    29       21      2      0         0.0000000000
    30       21      3      0         0.0293964870
    31       22      1      0         0.0000000000
    32       22      2      0         0.0000000000
    33       22      3      0         0.0068719922
    34       23      1      0         0.0000000000
    35       23      2      0         0.0000000000
    36       23      3      0         0.0294481015
    37       24      1      0         0.0000000000
    38       24      2      0         0.0000000000
    39       24      3      0         0.0613817738
    40       25      1      0         0.0000000000
    41       25      2      0         0.0000000000
    42       25      3      0         0.1121416410
    43       26      1      0         0.0000000000
    44       26      2      0         0.0000000000
    45       26      3      0        -0.0236674031


Reaction sum

X1 direction =>     sum =       0.00000000
X2 direction =>     sum =       0.00000000
X3 direction =>     sum =     240.00000000


LAST LINE
